n=20;
m=32;
ciudades=[|2, 4
|3, 8
|4, 1
|6, 3
|8, 7
|0, 3
|9, 10
|2, 2
|19, 15
|18, 13
|14, 9
|12, 4
|2, 18
|1, 12
|5, 0
|4, 11
|5, 12
|2, 15
|5, 9
|7, 16
|4, 12
|8, 9
|13, 19
|8, 11
|12, 13
|1, 7
|13, 18
|9, 20
|11, 19
|4, 15
|9, 12
|6, 20
|];
